29 29
24
3 3 26 26
3 4 23 25
3 5 26 21
3 6 26 15
3 7 26 8
3 8 26 0
3 9 17 20
3 10 23 15
3 11 20 18
3 15 23 0
3 18 20 0
3 20 17 0
4 3 13 26
4 4 9 25
4 5 13 21
4 6 13 15
4 7 9 18
4 9 5 20
4 15 13 0
4 18 9 0
4 20 5 0
5 4 0 25
5 8 0 17
5 17 0 0
